solution status: optimal solution found
objective value:                     131421.214285702
d11(0,0)                                            1 	(obj:0)
d11(1,1)                                            1 	(obj:0)
d11(1,2)                                            1 	(obj:0)
d11(1,3)                                            1 	(obj:0)
d11(2,4)                                            1 	(obj:0)
d11(2,5)                                            1 	(obj:0)
d11(2,7)                                            1 	(obj:0)
d11(2,8)                                            1 	(obj:0)
d11(2,10)                                           1 	(obj:0)
d11(2,11)                                           1 	(obj:0)
d11(3,13)                                           1 	(obj:0)
d11(3,14)                                           1 	(obj:0)
d11(3,15)                                           1 	(obj:0)
d11(3,16)                                           1 	(obj:0)
d11(3,17)                                           1 	(obj:0)
d11(3,18)                                           1 	(obj:0)
d11(3,19)                                           1 	(obj:0)
d11(3,20)                                           1 	(obj:0)
d11(3,21)                                           1 	(obj:0)
d11(3,22)                                           1 	(obj:0)
d11(3,23)                                           1 	(obj:0)
d11(3,25)                                           1 	(obj:0)
d11(3,26)                                           1 	(obj:0)
d11(3,28)                                           1 	(obj:0)
d11(3,29)                                           1 	(obj:0)
d11(3,31)                                           1 	(obj:0)
d11(3,32)                                           1 	(obj:0)
d11(3,34)                                           1 	(obj:0)
d11(3,35)                                           1 	(obj:0)
d11(3,36)                                           1 	(obj:0)
d11(3,37)                                           1 	(obj:0)
d11(3,38)                                           1 	(obj:0)
d11(3,39)                                           1 	(obj:0)
d12(2,6)                                            1 	(obj:0)
d12(2,9)                                            1 	(obj:0)
d12(2,12)                                           1 	(obj:0)
d21(3,13)                                           1 	(obj:0)
d21(3,14)                                           1 	(obj:0)
d21(3,15)                                           1 	(obj:0)
d21(3,16)                                           1 	(obj:0)
d21(3,17)                                           1 	(obj:0)
d21(3,19)                                           1 	(obj:0)
d21(3,22)                                           1 	(obj:0)
d21(3,23)                                           1 	(obj:0)
d21(3,25)                                           1 	(obj:0)
d21(3,31)                                           1 	(obj:0)
STE(1,1)                               9377.781793333 	(obj:0)
STE(0,0)                                        12600 	(obj:0)
STE(1,2)                             10374.5477966663 	(obj:0)
STE(1,3)                             11591.9999999997 	(obj:0)
STE(2,4)                             6531.92019666677 	(obj:0)
STE(2,5)                             7528.68620000006 	(obj:0)
STE(2,6)                             8533.85587519768 	(obj:0)
STE(2,7)                             7528.68620000009 	(obj:0)
STE(2,8)                             8525.45220333338 	(obj:0)
STE(2,9)                               9530.621878531 	(obj:0)
STE(2,10)                            8746.13840333349 	(obj:0)
STE(2,11)                            9742.90440666673 	(obj:0)
STE(2,12)                            10748.0740818643 	(obj:0)
STE(3,13)                             3309.7019900001 	(obj:0)
STE(3,14)                            4306.46799333339 	(obj:0)
STE(3,15)                            5523.92019666677 	(obj:0)
STE(3,16)                            4306.46799333339 	(obj:0)
STE(3,17)                            5303.23399666669 	(obj:0)
STE(3,18)                            6520.68620000006 	(obj:0)
STE(3,19)                            5311.63766853101 	(obj:0)
STE(3,20)                             6308.4036718643 	(obj:0)
STE(3,21)                            7525.85587519768 	(obj:0)
STE(3,22)                            4306.46799333342 	(obj:0)
STE(3,23)                            5303.23399666671 	(obj:0)
STE(3,24)                            6520.68620000009 	(obj:0)
STE(3,25)                            5303.23399666671 	(obj:0)
STE(3,26)                                        6300 	(obj:0)
STE(3,27)                            7517.45220333338 	(obj:0)
STE(3,28)                            6308.40367186433 	(obj:0)
STE(3,29)                            7305.16967519762 	(obj:0)
STE(3,30)                              8522.621878531 	(obj:0)
STE(3,31)                            5523.92019666682 	(obj:0)
STE(3,32)                            6520.68620000011 	(obj:0)
STE(3,33)                            7738.13840333349 	(obj:0)
STE(3,34)                            6520.68620000006 	(obj:0)
STE(3,35)                            7517.45220333336 	(obj:0)
STE(3,36)                            8734.90440666673 	(obj:0)
STE(3,37)                            7525.85587519768 	(obj:0)
STE(3,38)                            8522.62187853097 	(obj:0)
STE(3,39)                            9740.07408186435 	(obj:0)
y1(3,23)                             1095.70698300004 	(obj:0)
y1(3,25)                                  1992.796386 	(obj:0)
y1(3,26)                             1095.70698300004 	(obj:0)
y1(3,28)                                  1992.796386 	(obj:0)
y1(3,29)                             1095.70698300004 	(obj:0)
y1(3,31)                                  1992.796386 	(obj:0)
y1(3,32)                             1095.70698300004 	(obj:0)
y1(3,34)                                  1992.796386 	(obj:0)
y1(3,35)                             1095.70698300004 	(obj:0)
y1(3,37)                                  1992.796386 	(obj:0)
y1(3,38)                             1095.70698300004 	(obj:0)
BG(3)                                1204.56299667522 	(obj:10)
AVE(1)                               3199.95851117552 	(obj:0)
WB(2)                                3265.15049132519 	(obj:0)
AVE(2)                               3265.15049132519 	(obj:0)
AVE(3)                               3291.35535332476 	(obj:0)
WG(1)                                3199.95851117552 	(obj:10)
WG(3)                                3291.35535332476 	(obj:10)
BG(1)                                1295.95983882477 	(obj:10)
BG(2)                                4150.28472857101 	(obj:10)
y1(1,1)                               1992.7963860003 	(obj:0)
y1(1,2)                              1095.70698300032 	(obj:0)
y1(2,4)                              1654.07543699961 	(obj:0)
y1(2,5)                              756.986033999644 	(obj:0)
y1(2,7)                              1654.07543699961 	(obj:0)
y1(2,8)                              756.986033999644 	(obj:0)
y1(2,10)                             1654.07543699956 	(obj:0)
y1(2,11)                             756.986033999644 	(obj:0)
y1(3,13)                                  1992.796386 	(obj:0)
y1(3,14)                             1095.70698300004 	(obj:0)
y1(3,16)                                  1992.796386 	(obj:0)
y1(3,17)                             1095.70698300004 	(obj:0)
y1(3,19)                                  1992.796386 	(obj:0)
y1(3,20)                             1095.70698300004 	(obj:0)
y1(3,22)                                  1992.796386 	(obj:0)
y2(2,6)                              172.709559857555 	(obj:0)
y2(2,9)                              172.709559857556 	(obj:0)
y2(2,12)                             172.709559857556 	(obj:0)
